instances/tuning-use-case-1/oven_scheduling.minizinc_instance_0112-17.51.40.dat
LengthSchedulingHorizon=291;
nAttributes=2;
SetupCosts=[[0, 0], [0, 3], [0, 3]];
SetupTimes=[[0, 0], [0, 3], [3, 3]];
nMachines=5;
MinCap=[0, 0, 0, 0, 0];
MaxCap=[44, 45, 36, 65, 32];

initState=[2, 2, 1, 2, 1];
nShifts=5;
ShiftStartTimes = [[0, 0, 0, 0, 26], [0, 0, 0, 8, 102], [0, 0, 0, 0, 46], [0, 0, 47, 81, 223], [47, 58, 88, 247, 257]];
ShiftEndTimes = [[0, 0, 0, 0, 253], [0, 0, 0, 80, 288], [0, 0, 0, 0, 282], [0, 0, 81, 210, 280], [56, 82, 224, 257, 286]];
nJobs=25;
EligibleMachines = [{1, 2, 4}, {3, 4}, {3, 4}, {2, 3, 4}, {1, 2, 4}, {1, 2}, {1}, {3}, {3}, {4}, {3, 5}, {5}, {4}, {1}, {3}, {2}, {1, 4, 5}, {1, 2}, {4}, {2, 5}, {1, 4, 5}, {5}, {5}, {5}, {2, 5}];
EarliestStart=[10, 7, 13, 0, 2, 2, 6, 8, 10, 2, 8, 1, 10, 4, 3, 6, 9, 11, 5, 11, 10, 2, 8, 7, 5];
LatestEnd=[14, 15, 19, 4, 18, 11, 18, 18, 12, 9, 20, 10, 15, 7, 8, 13, 12, 15, 10, 17, 20, 3, 24, 8, 10];
MinTime=[4, 6, 5, 3, 9, 9, 8, 10, 2, 6, 8, 9, 4, 2, 4, 6, 2, 3, 3, 6, 9, 1, 9, 1, 4];
MaxTime=[5, 6, 8, 3, 10, 10, 9, 10, 2, 6, 8, 10, 6, 3, 7, 8, 10, 4, 10, 6, 10, 1, 9, 10, 6];
JobSize=[3, 3, 4, 5, 3, 5, 1, 3, 3, 4, 4, 1, 4, 5, 3, 5, 4, 4, 2, 3, 1, 1, 5, 3, 4];
Attribute=[1, 2, 2, 1, 2, 2, 1, 1, 1, 2, 2, 2, 1, 2, 1, 1, 1, 1, 2, 1, 1, 2, 2, 2, 1];

upper_bound_integer_objective=15750;
mult_factor_total_runtime=4;
mult_factor_finished_toolate=600;
mult_factor_total_setuptimes=0;
mult_factor_total_setupcosts=2;
running_time_bound=133;
min_duration=1;
max_duration=10;
max_setup_time=3;
max_setup_cost=3;
